1 1607
2 1412
4 1400
6 1363
7 1358
10 1322
16 1310
27 1292
30 1286
32 1247
125 1237
132 1213
161 1207
372 1200
747 1158



1 1676
2 1486
3 1423
4 1330
8 1302
11 1300
19 1230
81 1226
137 1187
519 1182



1 1524
2 1487
3 1285
5 1282
6 1264
36 1243
43 1223
53 1216
352 1214
543 1199



1 1596
2 1333
3 1291
14 1280
27 1277
60 1254
109 1246
172 1221
609 1220
671 1169



1 1532
2 1392
3 1317
7 1267
71 1262
79 1222
196 1174



